n=49 n_exc=5  q_quantum=0.5d  Q_MAX=400   bank=112.996  R3=101.65
Building cost tables...
  built in 0.1s. cheap cells finite: 45380/960400 (4.73%)
  exc   cells finite: 335640/960400 (34.95%)
  reachable directed pairs: 923 / 2352 = 39.2%

Building CP-SAT model...
Adding element constraints (may take a while)...
  added 1944 element tables in 0.3s

Model: vars≈7203 bool, 50 int  constraints≈1994

Solving (time_limit=7200s, 8 workers)...

Starting CP-SAT solver v9.15.6755
Parameters: max_time_in_seconds: 7200 log_search_progress: true num_search_workers: 8

Initial optimization model '': (model_fingerprint: 0x35f33f19475e8966)
#Variables: 5'009 (#ints: 1 in objective) (5'008 primary variables)
  - 2'042 Booleans in [0,1]
  - 50 in [0,400]
  - 2'916 in [0,801]
  - 1 constants in {0} 
#kCircuit: 1
#kElement: 1'944
#kLinear1: 972 (#enforced: 972)
#kLinear2: 3'799 (#enforced: 1'944)
#kLinear3: 972 (#enforced: 972)
#kLinearN: 1 (#terms: 972)

Starting presolve at 0.06s
  2.28e-03s  0.00e+00d  [DetectDominanceRelations] 
  1.82e-01s  1.00e-08d  [PresolveToFixPoint] #num_loops=3 #num_dual_strengthening=2 
  1.89e-04s  0.00e+00d  [ExtractEncodingFromLinear] 
  2.38e-02s  0.00e+00d  [DetectDuplicateColumns] 
  4.49e-03s  0.00e+00d  [DetectDuplicateConstraints] 
[Symmetry] Graph for symmetry has 135'635 nodes and 616'201 arcs.
[Symmetry] Symmetry computation done. time: 0.048061 dtime: 0.0573692
[SAT presolve] num removable Booleans: 0 / 30'098
[SAT presolve] num trivial clauses: 0
[SAT presolve] [0s] clauses:1'806 literals:3'612 vars:1'944 one_side_vars:276 simple_definition:1'668 singleton_clauses:0
[SAT presolve] [0.000182211s] clauses:1'806 literals:3'612 vars:1'944 one_side_vars:276 simple_definition:1'668 singleton_clauses:0
[SAT presolve] [0.00126232s] clauses:1'806 literals:3'612 vars:1'944 one_side_vars:276 simple_definition:1'668 singleton_clauses:0
  5.05e-03s  0.00e+00d  [DetectDuplicateConstraintsWithDifferentEnforcements] 
  6.85e-01s  1.00e+00d *[Probe] #probed=13'070 #new_bounds=973 #equiv=1'541 #new_binary_clauses=198'052 
  1.65e-03s  8.10e-04d  [MaxClique] 
  2.44e-02s  0.00e+00d  [DetectDominanceRelations] 
  3.49e-01s  2.00e-08d  [PresolveToFixPoint] #num_loops=2 #num_dual_strengthening=1 
  1.19e-02s  0.00e+00d  [ProcessAtMostOneAndLinear] 
  5.65e-03s  0.00e+00d  [DetectDuplicateConstraints] #duplicates=716 
  5.01e-03s  0.00e+00d  [DetectDuplicateConstraintsWithDifferentEnforcements] 
  1.83e-03s  1.32e-05d  [DetectDominatedLinearConstraints] #relevant_constraints=956 
  1.38e-03s  0.00e+00d  [DetectDifferentVariables] 
  2.77e-02s  1.30e-03d  [ProcessSetPPC] #relevant_constraints=8'621 
  4.05e-03s  2.84e-05d  [TransformClausesToExactlyOne] #num_amos=398 #num_clauses=916 #num_checked=916 
  5.61e-02s  0.00e+00d  [DetectEncodedComplexDomains] 
  1.46e-03s  0.00e+00d  [FindAlmostIdenticalLinearConstraints] 
  8.90e-02s  9.10e-02d  [FindBigAtMostOneAndLinearOverlap] 
  8.35e-03s  7.61e-03d  [FindBigVerticalLinearOverlap] 
  9.72e-04s  4.86e-06d  [FindBigHorizontalLinearOverlap] #linears=1 
  2.82e-03s  1.37e-05d  [MergeClauses] 
  2.32e-02s  0.00e+00d  [DetectDominanceRelations] 
  1.86e-01s  1.00e-08d  [PresolveToFixPoint] #num_loops=1 #num_dual_strengthening=1 
  2.34e-02s  0.00e+00d  [DetectDominanceRelations] 
  1.83e-01s  1.00e-08d  [PresolveToFixPoint] #num_loops=1 #num_dual_strengthening=1 
  1.61e-02s  0.00e+00d  [DetectDuplicateColumns] 
  4.91e-03s  0.00e+00d  [DetectDuplicateConstraints] 
[Symmetry] Graph for symmetry has 132'286 nodes and 581'327 arcs.
[Symmetry] Symmetry computation done. time: 0.0356472 dtime: 0.0489564
[SAT presolve] num removable Booleans: 0 / 28'618
[SAT presolve] num trivial clauses: 0
[SAT presolve] [0s] clauses:1'314 literals:3'544 vars:1'505 one_side_vars:589 simple_definition:916 singleton_clauses:0
[SAT presolve] [0.000189974s] clauses:1'314 literals:3'544 vars:1'505 one_side_vars:589 simple_definition:916 singleton_clauses:0
[SAT presolve] [0.000955693s] clauses:1'314 literals:3'544 vars:1'505 one_side_vars:589 simple_definition:916 singleton_clauses:0
  5.41e-03s  0.00e+00d  [DetectDuplicateConstraintsWithDifferentEnforcements] 
  6.40e-01s  1.00e+00d *[Probe] #probed=15'304 #fixed_bools=1 #equiv=134 #new_binary_clauses=203'861 
  3.70e-03s  7.46e-03d  [MaxClique] Merged 398 constraints with 796 literals into 210 constraints with 608 literals
  2.41e-02s  0.00e+00d  [DetectDominanceRelations] 
  1.88e-01s  1.00e-08d  [PresolveToFixPoint] #num_loops=2 #num_dual_strengthening=1 
  1.30e-02s  0.00e+00d  [ProcessAtMostOneAndLinear] 
  5.27e-03s  0.00e+00d  [DetectDuplicateConstraints] #duplicates=134 
  5.05e-03s  0.00e+00d  [DetectDuplicateConstraintsWithDifferentEnforcements] 
  1.91e-03s  1.32e-05d  [DetectDominatedLinearConstraints] #relevant_constraints=956 
  1.68e-03s  0.00e+00d  [DetectDifferentVariables] 
  2.86e-02s  1.30e-03d  [ProcessSetPPC] #relevant_constraints=8'558 #num_inclusions=10 
  4.26e-03s  1.67e-05d  [TransformClausesToExactlyOne] #num_amos=219 #num_clauses=916 #num_checked=916 
  5.67e-02s  0.00e+00d  [DetectEncodedComplexDomains] 
  1.63e-03s  0.00e+00d  [FindAlmostIdenticalLinearConstraints] 
  9.19e-02s  9.53e-02d  [FindBigAtMostOneAndLinearOverlap] 
  8.67e-03s  7.60e-03d  [FindBigVerticalLinearOverlap] 
  1.07e-03s  4.86e-06d  [FindBigHorizontalLinearOverlap] #linears=1 
  2.95e-03s  1.37e-05d  [MergeClauses] 
  2.32e-02s  0.00e+00d  [DetectDominanceRelations] 
  1.83e-01s  1.00e-08d  [PresolveToFixPoint] #num_loops=1 #num_dual_strengthening=1 
  2.32e-02s  0.00e+00d  [DetectDominanceRelations] 
  1.79e-01s  1.00e-08d  [PresolveToFixPoint] #num_loops=1 #num_dual_strengthening=1 
  1.57e-02s  0.00e+00d  [DetectDuplicateColumns] 
  4.75e-03s  0.00e+00d  [DetectDuplicateConstraints] #duplicates=10 
[Symmetry] Graph for symmetry has 131'769 nodes and 577'418 arcs.
[Symmetry] Symmetry computation done. time: 0.0353203 dtime: 0.0483688
[SAT presolve] num removable Booleans: 0 / 28'483
[SAT presolve] num trivial clauses: 0
[SAT presolve] [0s] clauses:1'094 literals:3'104 vars:1'427 one_side_vars:511 simple_definition:916 singleton_clauses:0
[SAT presolve] [0.000159317s] clauses:1'094 literals:3'104 vars:1'427 one_side_vars:511 simple_definition:916 singleton_clauses:0
[SAT presolve] [0.000836682s] clauses:1'094 literals:3'104 vars:1'427 one_side_vars:511 simple_definition:916 singleton_clauses:0
  5.30e-03s  0.00e+00d  [DetectDuplicateConstraintsWithDifferentEnforcements] 
  6.45e-01s  1.00e+00d *[Probe] #probed=15'754 #equiv=13 #new_binary_clauses=215'750 
  3.45e-03s  6.98e-03d  [MaxClique] 
  2.32e-02s  0.00e+00d  [DetectDominanceRelations] 
  1.84e-01s  1.00e-08d  [PresolveToFixPoint] #num_loops=1 #num_dual_strengthening=1 
  1.24e-02s  0.00e+00d  [ProcessAtMostOneAndLinear] 
  4.64e-03s  0.00e+00d  [DetectDuplicateConstraints] #duplicates=13 
  5.02e-03s  0.00e+00d  [DetectDuplicateConstraintsWithDifferentEnforcements] 
  1.89e-03s  1.32e-05d  [DetectDominatedLinearConstraints] #relevant_constraints=956 
  1.47e-03s  0.00e+00d  [DetectDifferentVariables] 
  2.82e-02s  1.30e-03d  [ProcessSetPPC] #relevant_constraints=8'545 #num_inclusions=10 
  4.18e-03s  1.67e-05d  [TransformClausesToExactlyOne] #num_amos=219 #num_clauses=916 #num_checked=916 
  5.80e-02s  0.00e+00d  [DetectEncodedComplexDomains] 
  1.73e-03s  0.00e+00d  [FindAlmostIdenticalLinearConstraints] 
  9.36e-02s  9.53e-02d  [FindBigAtMostOneAndLinearOverlap] 
  8.43e-03s  7.59e-03d  [FindBigVerticalLinearOverlap] 
  1.01e-03s  4.86e-06d  [FindBigHorizontalLinearOverlap] #linears=1 
  3.02e-03s  1.37e-05d  [MergeClauses] 
  2.31e-02s  0.00e+00d  [DetectDominanceRelations] 
  1.83e-01s  1.00e-08d  [PresolveToFixPoint] #num_loops=1 #num_dual_strengthening=1 
  6.78e-04s  0.00e+00d  [MergeNoOverlap] 
  6.78e-04s  0.00e+00d  [MergeNoOverlap2D] 
  4.09e-01s  0.00e+00d  [ExpandObjective] #entries=64'086'298 #tight_variables=418'636 #tight_constraints=7'419 

Presolve summary:
  - 2230 affine relations were detected.
  - rule 'TODO dual: only one blocking constraint?' was applied 2'488 times.
  - rule 'TODO dual: only one blocking enforced constraint?' was applied 1'380 times.
  - rule 'TODO dual: only one unspecified blocking constraint?' was applied 10 times.
  - rule 'TODO linear2: convert implied ax + by == cte to clauses for large domains' was applied 372 times.
  - rule 'affine: new relation' was applied 2'230 times.
  - rule 'at_most_one: removed literals' was applied 1 time.
  - rule 'at_most_one: size one' was applied 1 time.
  - rule 'at_most_one: transformed into max clique' was applied 1 time.
  - rule 'bool_or: always true' was applied 183 times.
  - rule 'bool_or: implications' was applied 1'989 times.
  - rule 'bool_or: removed enforcement literal' was applied 1'282 times.
  - rule 'circuit: removed false arcs' was applied 1 time.
  - rule 'deductions: 62944 stored' was applied 1 time.
  - rule 'dual: make encoding equiv' was applied 3 times.
  - rule 'dual: reduced domain' was applied 1 time.
  - rule 'duplicate: removed constraint' was applied 873 times.
  - rule 'element: expanded value element' was applied 1'110 times.
  - rule 'element: one value array' was applied 834 times.
  - rule 'element: reduce target domain' was applied 1'944 times.
  - rule 'element: reduced index domain from array size' was applied 49 times.
  - rule 'enforcement: false literal' was applied 1 time.
  - rule 'enforcement: true literal' was applied 1 time.
  - rule 'incompatible linear: add implication' was applied 30 times.
  - rule 'linear1: always true' was applied 1 time.
  - rule 'linear2: convert ax + by != cte to clauses' was applied 1'806 times.
  - rule 'linear2: convert implied ax + by == cte to clauses' was applied 183 times.
  - rule 'linear: divide by GCD' was applied 66 times.
  - rule 'linear: empty' was applied 132 times.
  - rule 'linear: enforcement literal in expression' was applied 264 times.
  - rule 'linear: fixed or dup variables' was applied 1'098 times.
  - rule 'linear: reduced variable domains' was applied 1 time.
  - rule 'linear: remapped using affine relations' was applied 421 times.
  - rule 'linear: simplified rhs' was applied 25'950 times.
  - rule 'new_bool: integer encoding' was applied 28'448 times.
  - rule 'new_bool: var with 2 values' was applied 67 times.
  - rule 'presolve: 836 unused variables removed.' was applied 1 time.
  - rule 'presolve: iteration' was applied 3 times.
  - rule 'variables with 2 values: create encoding literal' was applied 67 times.
  - rule 'variables with 2 values: new affine relation' was applied 133 times.
  - rule 'variables with 2 values: register other encoding' was applied 66 times.
  - rule 'variables: add encoding constraint' was applied 28'448 times.
  - rule 'variables: canonicalize affine domain' was applied 11 times.
  - rule 'variables: detect fully reified value encoding' was applied 834 times.
  - rule 'variables: detect half reified value encoding' was applied 2'640 times.
  - rule 'variables: detected fully encoded domain' was applied 3 times.
  - rule 'variables: only used in value and order encodings' was applied 183 times.

Presolved optimization model '': (model_fingerprint: 0x2efb880729e9c7b7)
#Variables: 30'286 (#ints: 1 in objective) (25'616 primary variables)
  - 28'470 Booleans in [0,1]
  - 330 different domains in [0,801] with a largest complexity of 8.
#kAtMostOne: 31 (#literals: 250)
#kBoolAnd: 188 (#enforced: 188) (#literals: 376)
#kBoolOr: 916 (#literals: 2'748)
#kCircuit: 1
#kExactlyOne: 7'419 (#literals: 418'636)
#kLinear1: 57'286 (#enforced: 57'286)
#kLinear2: 976 (#enforced: 927)
#kLinear3: 906 (#enforced: 906)
#kLinearN: 1 (#terms: 972)
[Symmetry] Graph for symmetry has 128'494 nodes and 576'800 arcs.
[Symmetry] Symmetry computation done. time: 0.0352763 dtime: 0.0480941

Preloading model.
#Bound   5.71s best:inf   next:[1,399]    initial_domain
#Model   5.76s var:30286/30286 constraints:67724/67724

Starting search at 5.80s with 8 workers.
6 full problem subsolvers: [default_lp, max_lp, no_lp, quick_restart, quick_restart_no_lp, reduced_costs]
2 first solution subsolvers: [fj, fs_random_no_lp]
11 interleaved subsolvers: [feasibility_pump, graph_arc_lns, graph_cst_lns, graph_dec_lns, graph_var_lns, ls, rins/rens, rnd_cst_lns, rnd_var_lns, routing_path_lns, routing_random_lns]
3 helper subsolvers: [neighborhood_helper, synchronization_agent, update_gap_integral]

#Bound  11.91s best:inf   next:[2,399]    reduced_costs
#Bound  19.19s best:inf   next:[3,399]    reduced_costs
#Bound  20.29s best:inf   next:[4,399]    reduced_costs
#Bound  21.85s best:inf   next:[5,399]    reduced_costs
#Bound  23.72s best:inf   next:[6,399]    reduced_costs
#Bound  26.64s best:inf   next:[7,399]    reduced_costs
#1      28.96s best:384   next:[7,383]    no_lp
#2      29.08s best:383   next:[7,382]    no_lp
#3      29.28s best:377   next:[7,376]    no_lp
#Model  29.32s var:29224/30286 constraints:64507/67724
#4      29.40s best:376   next:[7,375]    no_lp
#5      29.49s best:375   next:[7,374]    no_lp
#Model  29.55s var:28869/30286 constraints:63755/67724
#6      29.55s best:374   next:[7,373]    no_lp
#7      29.62s best:373   next:[7,372]    no_lp
#Model  29.65s var:28809/30286 constraints:63630/67724
#8      29.69s best:372   next:[7,371]    no_lp
#9      29.79s best:371   next:[7,370]    no_lp
#10     29.88s best:370   next:[7,369]    no_lp
#Model  29.88s var:28652/30286 constraints:63308/67724
#11     29.95s best:369   next:[7,368]    no_lp
#Model  30.12s var:28490/30286 constraints:62974/67724
#Bound  30.37s best:369   next:[8,368]    reduced_costs
#12     30.58s best:368   next:[8,367]    no_lp
#Model  30.74s var:28441/30286 constraints:62874/67724
#13     31.31s best:367   next:[8,366]    no_lp
#14     31.43s best:366   next:[8,365]    no_lp
#Model  31.47s var:28386/30286 constraints:62754/67724
#15     31.50s best:365   next:[8,364]    no_lp
#Model  31.71s var:28282/30286 constraints:62535/67724
#16     31.95s best:364   next:[8,363]    no_lp
#17     32.03s best:363   next:[8,362]    no_lp
#Model  32.13s var:28224/30286 constraints:62414/67724
#18     32.21s best:362   next:[8,361]    no_lp
#19     32.32s best:361   next:[8,360]    no_lp
#Model  32.33s var:28116/30286 constraints:62190/67724
#20     32.47s best:360   next:[8,359]    no_lp
#21     32.55s best:359   next:[8,358]    no_lp
#Model  32.57s var:28064/30286 constraints:62083/67724
#22     32.62s best:358   next:[8,357]    no_lp
#23     32.70s best:357   next:[8,356]    no_lp
#24     32.79s best:355   next:[8,354]    no_lp
#Model  32.81s var:27903/30286 constraints:61748/67724
#25     32.88s best:354   next:[8,353]    no_lp
#26     32.98s best:353   next:[8,352]    no_lp
#Model  33.03s var:27686/30286 constraints:61301/67724
#27     33.05s best:352   next:[8,351]    no_lp
#Model  33.26s var:27576/30286 constraints:61074/67724
#28     33.53s best:351   next:[8,350]    no_lp
#29     33.62s best:350   next:[8,349]    no_lp
#Model  33.70s var:27523/30286 constraints:60966/67724
#Model  33.93s var:27470/30286 constraints:60858/67724
#Bound  36.08s best:350   next:[9,349]    reduced_costs
#30     39.67s best:349   next:[9,348]    no_lp
#31     39.78s best:348   next:[9,347]    no_lp
#Model  39.83s var:27412/30286 constraints:60734/67724
#32     39.87s best:347   next:[9,346]    no_lp
#Model  39.95s var:27361/30286 constraints:60628/67724
#33     39.98s best:346   next:[9,345]    no_lp
#Model  40.18s var:27251/30286 constraints:60401/67724
#34     40.27s best:345   next:[9,344]    no_lp
#35     40.38s best:344   next:[9,343]    no_lp
#Model  40.41s var:27196/30286 constraints:60285/67724
#36     40.47s best:343   next:[9,342]    no_lp
#37     40.58s best:342   next:[9,341]    no_lp
#Model  40.64s var:27094/30286 constraints:60072/67724
#Model  40.86s var:27034/30286 constraints:59946/67724
#Bound  44.89s best:342   next:[10,341]   reduced_costs
#Bound  50.11s best:342   next:[11,341]   reduced_costs
#Bound  51.14s best:342   next:[12,341]   reduced_costs
#Bound  52.68s best:342   next:[13,341]   reduced_costs
#Bound  64.82s best:342   next:[14,341]   reduced_costs
#Bound  66.68s best:342   next:[15,341]   reduced_costs
#Model  69.52s var:27033/30286 constraints:59944/67724
#Bound  69.96s best:342   next:[16,341]   reduced_costs
#Bound  72.11s best:342   next:[17,341]   reduced_costs
#Model  78.02s var:27032/30286 constraints:59942/67724
#Bound  78.56s best:342   next:[18,341]   reduced_costs
#Bound  83.52s best:342   next:[19,341]   reduced_costs
#Model  84.63s var:27031/30286 constraints:59942/67724
#Bound  94.13s best:342   next:[20,341]   reduced_costs
#Bound 101.97s best:342   next:[21,341]   reduced_costs
#Bound 103.89s best:342   next:[22,341]   reduced_costs
#Bound 105.51s best:342   next:[23,341]   reduced_costs
#Bound 108.11s best:342   next:[24,341]   reduced_costs
#38    109.39s best:340   next:[24,339]   no_lp
#Bound 109.45s best:340   next:[25,339]   reduced_costs
#Model 109.60s var:26923/30286 constraints:59717/67724
#39    109.68s best:339   next:[25,338]   no_lp
#Model 109.84s var:26867/30286 constraints:59603/67724
#40    109.90s best:338   next:[25,337]   no_lp
#41    109.99s best:337   next:[25,336]   no_lp
#Model 110.06s var:26811/30286 constraints:59488/67724
#42    110.10s best:336   next:[25,335]   no_lp
#43    110.21s best:335   next:[25,334]   no_lp
#Model 110.26s var:26695/30286 constraints:59241/67724
#Model 110.48s var:26644/30286 constraints:59138/67724
#Bound 110.81s best:335   next:[26,334]   reduced_costs
#44    111.29s best:334   next:[26,333]   no_lp
#45    111.39s best:333   next:[26,332]   no_lp
#Model 111.44s var:26588/30286 constraints:59016/67724
#Model 111.68s var:26532/30286 constraints:58902/67724
#Bound 112.44s best:333   next:[27,332]   reduced_costs
#Bound 113.93s best:333   next:[28,332]   reduced_costs
#Model 121.56s var:26529/30286 constraints:58895/67724
#Bound 123.24s best:333   next:[29,332]   reduced_costs
#Bound 125.67s best:333   next:[30,332]   reduced_costs
#Bound 126.84s best:333   next:[31,332]   reduced_costs
#Bound 128.00s best:333   next:[32,332]   reduced_costs
#Model 129.41s var:26528/30286 constraints:58894/67724
#Bound 129.54s best:333   next:[33,332]   reduced_costs
#Bound 130.76s best:333   next:[34,332]   reduced_costs
#Model 131.56s var:26523/30286 constraints:58879/67724
#Bound 132.59s best:333   next:[35,332]   reduced_costs
#Bound 134.73s best:333   next:[36,332]   reduced_costs
#Bound 135.94s best:333   next:[37,332]   reduced_costs
#Bound 137.47s best:333   next:[38,332]   reduced_costs
#Model 138.90s var:26503/30286 constraints:58826/67724
#Bound 139.06s best:333   next:[39,332]   reduced_costs
#Model 139.16s var:26491/30286 constraints:58794/67724
#Model 139.39s var:26489/30286 constraints:58790/67724
#Model 139.52s var:26482/30286 constraints:58771/67724
#Model 139.87s var:26477/30286 constraints:58756/67724
#Model 140.10s var:26476/30286 constraints:58755/67724
#Model 140.74s var:26474/30286 constraints:58751/67724
#Model 141.07s var:26472/30286 constraints:58747/67724
#Bound 141.29s best:333   next:[40,332]   reduced_costs
#Model 141.33s var:26471/30286 constraints:58744/67724
#Model 141.56s var:26469/30286 constraints:58740/67724
#Model 141.81s var:26460/30286 constraints:58714/67724
#Model 142.26s var:26458/30286 constraints:58710/67724
#Model 142.48s var:26454/30286 constraints:58699/67724
#Bound 142.56s best:333   next:[41,332]   reduced_costs
#Model 142.72s var:26450/30286 constraints:58688/67724
#Model 142.90s var:26446/30286 constraints:58677/67724
#Model 143.37s var:26444/30286 constraints:58673/67724
#Bound 143.88s best:333   next:[42,332]   reduced_costs
#Model 143.91s var:26442/30286 constraints:58669/67724
#Model 144.85s var:26438/30286 constraints:58658/67724
#Model 145.09s var:26437/30286 constraints:58657/67724
#Model 145.33s var:26433/30286 constraints:58649/67724
#Model 145.56s var:26427/30286 constraints:58637/67724
#Model 145.90s var:26425/30286 constraints:58633/67724
#Model 146.14s var:26418/30286 constraints:58614/67724
#Model 146.40s var:26416/30286 constraints:58610/67724
#Model 146.67s var:26414/30286 constraints:58606/67724
#Bound 146.77s best:333   next:[43,332]   reduced_costs
#Model 147.03s var:26410/30286 constraints:58595/67724
#Model 147.25s var:26406/30286 constraints:58586/67724
#Model 147.49s var:26404/30286 constraints:58582/67724
#Model 147.72s var:26400/30286 constraints:58574/67724
#Model 147.97s var:26396/30286 constraints:58566/67724
#Model 148.21s var:26379/30286 constraints:58528/67724
#Bound 148.26s best:333   next:[44,332]   reduced_costs
#Model 149.17s var:26377/30286 constraints:58524/67724
#Model 149.51s var:26376/30286 constraints:58523/67724
#Bound 150.85s best:333   next:[45,332]   reduced_costs
#Model 150.86s var:26374/30286 constraints:58519/67724
#Model 151.09s var:26372/30286 constraints:58515/67724
#Model 151.53s var:26370/30286 constraints:58511/67724
#Bound 152.47s best:333   next:[46,332]   reduced_costs
#Model 153.12s var:26366/30286 constraints:58503/67724
#Model 153.37s var:26362/30286 constraints:58492/67724
#Model 153.72s var:26360/30286 constraints:58488/67724
#Model 154.11s var:26356/30286 constraints:58477/67724
#Model 154.34s var:26355/30286 constraints:58474/67724
#Model 154.57s var:26353/30286 constraints:58470/67724
#Bound 154.93s best:333   next:[47,332]   reduced_costs
#Model 155.82s var:26349/30286 constraints:58459/67724
#46    155.86s best:332   next:[47,331]   no_lp
#47    155.95s best:331   next:[47,330]   no_lp
#48    156.04s best:330   next:[47,329]   no_lp
#Model 156.04s var:26296/30286 constraints:58349/67724
#49    156.20s best:329   next:[47,328]   no_lp
#Model 156.24s var:26187/30286 constraints:58115/67724
#Model 156.37s var:26128/30286 constraints:57991/67724
#Model 156.67s var:26126/30286 constraints:57987/67724
#Model 157.23s var:26124/30286 constraints:57983/67724
#Model 157.67s var:26122/30286 constraints:57979/67724
#Model 159.83s var:26119/30286 constraints:57972/67724
#Model 160.56s var:26115/30286 constraints:57964/67724
#Model 160.92s var:26110/30286 constraints:57949/67724
#Bound 162.99s best:329   next:[48,328]   reduced_costs
#Model 164.41s var:26105/30286 constraints:57939/67724
#Model 164.64s var:26104/30286 constraints:57937/67724
#Bound 164.70s best:329   next:[49,328]   reduced_costs
#Bound 167.41s best:329   next:[50,328]   reduced_costs
#Model 168.91s var:26103/30286 constraints:57935/67724
#Bound 169.21s best:329   next:[51,328]   reduced_costs
#Bound 170.71s best:329   next:[52,328]   reduced_costs
#Bound 172.23s best:329   next:[53,328]   reduced_costs
#Bound 173.63s best:329   next:[54,328]   reduced_costs
#Bound 175.74s best:329   next:[55,328]   reduced_costs
#Model 175.82s var:26094/30286 constraints:57915/67724
#Model 177.03s var:26088/30286 constraints:57900/67724
#Bound 178.48s best:329   next:[56,328]   reduced_costs
#Model 180.37s var:26086/30286 constraints:57896/67724
#Bound 181.74s best:329   next:[57,328]   reduced_costs
#Model 182.76s var:26082/30286 constraints:57885/67724
#Model 183.09s var:26081/30286 constraints:57885/67724
#Model 183.42s var:26079/30286 constraints:57881/67724
#Model 184.89s var:26075/30286 constraints:57869/67724
#Bound 185.41s best:329   next:[58,328]   reduced_costs
#Model 186.82s var:26073/30286 constraints:57865/67724
#Bound 187.31s best:329   next:[59,328]   reduced_costs
#Bound 189.32s best:329   next:[60,328]   reduced_costs
#Model 191.03s var:26069/30286 constraints:57854/67724
#Bound 191.54s best:329   next:[61,328]   reduced_costs
#Model 192.29s var:26057/30286 constraints:57830/67724
#Model 193.65s var:26052/30286 constraints:57819/67724
#Model 193.88s var:26048/30286 constraints:57813/67724
#Bound 194.01s best:329   next:[62,328]   reduced_costs
#Model 194.62s var:26047/30286 constraints:57812/67724
#Model 196.04s var:26043/30286 constraints:57803/67724
#Model 196.26s var:26042/30286 constraints:57802/67724
#Model 196.86s var:26038/30286 constraints:57798/67724
#Model 197.89s var:26037/30286 constraints:57797/67724
#Bound 197.94s best:329   next:[63,328]   reduced_costs
#Model 198.11s var:26035/30286 constraints:57793/67724
#Model 198.34s var:26033/30286 constraints:57789/67724
#Model 198.77s var:26031/30286 constraints:57785/67724
#Model 198.92s var:26027/30286 constraints:57774/67724
#Bound 203.42s best:329   next:[64,328]   reduced_costs
#Model 207.01s var:26025/30286 constraints:57770/67724
#Bound 208.85s best:329   next:[65,328]   reduced_costs
#Model 211.11s var:26024/30286 constraints:57768/67724
#Model 211.92s var:26023/30286 constraints:57766/67724
#Bound 214.08s best:329   next:[66,328]   reduced_costs
#Model 215.06s var:26022/30286 constraints:57761/67724
#Model 215.31s var:26021/30286 constraints:57759/67724
#Model 215.53s var:26020/30286 constraints:57757/67724
#Model 215.87s var:26018/30286 constraints:57753/67724
#Model 216.60s var:26014/30286 constraints:57742/67724
#Model 217.42s var:26012/30286 constraints:57740/67724
#Model 217.65s var:26011/30286 constraints:57737/67724
#Bound 221.71s best:329   next:[67,328]   reduced_costs
#Bound 225.59s best:329   next:[68,328]   reduced_costs
#50    226.28s best:327   next:[68,326]   no_lp
#Model 226.46s var:25902/30286 constraints:57512/67724
#51    226.65s best:326   next:[68,325]   no_lp
#52    226.74s best:325   next:[68,324]   no_lp
#Model 226.79s var:25850/30286 constraints:57399/67724
#53    226.82s best:324   next:[68,323]   no_lp
#Model 227.01s var:25749/30286 constraints:57186/67724
#54    227.03s best:323   next:[68,322]   no_lp
#55    227.12s best:322   next:[68,321]   no_lp
#56    227.21s best:321   next:[68,320]   no_lp
#Model 227.25s var:25693/30286 constraints:57063/67724
#57    227.30s best:320   next:[68,319]   no_lp
#Model 227.46s var:25514/30286 constraints:56672/67724
#Model 228.01s var:25513/30286 constraints:56670/67724
#58    228.38s best:319   next:[68,318]   no_lp
#Model 228.54s var:25460/30286 constraints:56557/67724
#59    229.15s best:318   next:[68,317]   no_lp
#60    229.23s best:317   next:[68,316]   no_lp
#61    229.32s best:316   next:[68,315]   no_lp
#Model 229.36s var:25360/30286 constraints:56350/67724
#62    229.40s best:315   next:[68,314]   no_lp
#Model 229.58s var:25249/30286 constraints:56120/67724
#Bound 235.22s best:315   next:[69,314]   reduced_costs
#Model 238.16s var:25248/30286 constraints:56118/67724
#Bound 241.18s best:315   next:[70,314]   reduced_costs
#Model 241.54s var:25247/30286 constraints:56116/67724
#Bound 247.93s best:315   next:[71,314]   reduced_costs
#Model 248.03s var:25246/30286 constraints:56113/67724
#Model 258.44s var:25236/30286 constraints:56092/67724
#Bound 261.57s best:315   next:[72,314]   reduced_costs
#Model 264.61s var:25235/30286 constraints:56091/67724
#Model 264.84s var:25234/30286 constraints:56089/67724
#Model 267.03s var:25232/30286 constraints:56087/67724
#Model 267.15s var:25230/30286 constraints:56084/67724
#Bound 271.52s best:315   next:[73,314]   reduced_costs
#Bound 281.43s best:315   next:[74,314]   reduced_costs
#Bound 288.60s best:315   next:[75,314]   reduced_costs
#Model 315.27s var:25227/30286 constraints:56079/67724
#Model 316.71s var:25225/30286 constraints:56075/67724
#Model 317.94s var:25222/30286 constraints:56070/67724
#Model 318.18s var:25213/30286 constraints:56044/67724
#Model 318.80s var:25212/30286 constraints:56043/67724
#Model 320.30s var:25211/30286 constraints:56043/67724
#Model 320.75s var:25207/30286 constraints:56032/67724
#Model 324.63s var:25205/30286 constraints:56028/67724
#Model 324.86s var:25202/30286 constraints:56020/67724
#Bound 324.90s best:315   next:[76,314]   reduced_costs
#Model 325.09s var:25194/30286 constraints:56000/67724
#Model 325.31s var:25192/30286 constraints:55996/67724
#Model 327.20s var:25187/30286 constraints:55989/67724
#Model 330.40s var:25181/30286 constraints:55977/67724
#Model 331.56s var:25179/30286 constraints:55973/67724
#Bound 333.50s best:315   next:[77,314]   reduced_costs
#Bound 349.35s best:315   next:[78,314]   reduced_costs
#Bound 374.09s best:315   next:[79,314]   reduced_costs
#Bound 402.44s best:315   next:[80,314]   reduced_costs
#Model 407.94s var:25176/30286 constraints:55967/67724
#Bound 422.92s best:315   next:[81,314]   reduced_costs
#Bound 450.41s best:315   next:[82,314]   reduced_costs
#Bound 466.14s best:315   next:[83,314]   reduced_costs
#Bound 485.46s best:315   next:[84,314]   reduced_costs
#Bound 502.28s best:315   next:[85,314]   reduced_costs
#Model 513.56s var:25175/30286 constraints:55965/67724
#Bound 528.46s best:315   next:[86,314]   reduced_costs
#Model 538.98s var:25173/30286 constraints:55961/67724
#Bound 572.10s best:315   next:[87,314]   reduced_costs
#Bound 597.82s best:315   next:[88,314]   reduced_costs
#Bound 614.83s best:315   next:[89,314]   reduced_costs
#Bound 633.72s best:315   next:[90,314]   reduced_costs
#Bound 669.21s best:315   next:[91,314]   reduced_costs
#Bound 690.08s best:315   next:[92,314]   reduced_costs
#Bound 714.70s best:315   next:[93,314]   reduced_costs
#Bound 755.10s best:315   next:[94,314]   reduced_costs
#Bound 820.49s best:315   next:[95,314]   reduced_costs
#Model 864.61s var:25169/30286 constraints:55950/67724
#Bound 874.72s best:315   next:[96,314]   reduced_costs
#Bound 892.27s best:315   next:[97,314]   reduced_costs
#Bound 929.23s best:315   next:[98,314]   reduced_costs
#Bound 962.43s best:315   next:[99,314]   reduced_costs
#Bound 999.42s best:315   next:[100,314]  reduced_costs
#Bound 1179.74s best:315   next:[101,314]  reduced_costs
#Model 1184.21s var:25164/30286 constraints:55935/67724
#Bound 1239.82s best:315   next:[102,314]  reduced_costs
#Model 1245.99s var:25162/30286 constraints:55931/67724
#Bound 1305.51s best:315   next:[103,314]  reduced_costs
#Model 1336.91s var:25160/30286 constraints:55927/67724
#Model 1338.59s var:25158/30286 constraints:55923/67724
#Bound 1405.40s best:315   next:[104,314]  reduced_costs
#63    1466.57s best:314   next:[104,313]  no_lp
#Model 1466.75s var:25097/30286 constraints:55798/67724
#Model 1476.07s var:25096/30286 constraints:55797/67724
#Model 1476.39s var:25094/30286 constraints:55794/67724
#Model 1519.93s var:25092/30286 constraints:55790/67724
#Bound 1526.91s best:314   next:[105,313]  reduced_costs
#Bound 1661.74s best:314   next:[106,313]  reduced_costs
#64    1795.16s best:313   next:[106,312]  no_lp
#Model 1795.36s var:25045/30286 constraints:55696/67724
#Bound 1803.97s best:313   next:[107,312]  reduced_costs
#65    1960.60s best:311   next:[107,310]  no_lp
#66    1960.71s best:310   next:[107,309]  no_lp
#Model 1960.76s var:24941/30286 constraints:55482/67724
#67    1960.93s best:309   next:[107,308]  no_lp
#Model 1961.00s var:24882/30286 constraints:55358/67724
#68    1961.01s best:308   next:[107,307]  no_lp
#69    1961.07s best:307   next:[107,306]  no_lp
#70    1961.13s best:306   next:[107,305]  no_lp
#71    1961.21s best:305   next:[107,304]  no_lp
#Model 1961.22s var:24721/30286 constraints:55017/67724
#72    1961.28s best:304   next:[107,303]  no_lp
#Model 1961.45s var:24551/30286 constraints:54650/67724
#Model 1971.84s var:24550/30286 constraints:54649/67724
#Model 1973.55s var:24543/30286 constraints:54634/67724
#Model 1974.69s var:24542/30286 constraints:54633/67724
#Model 1977.62s var:24541/30286 constraints:54632/67724
#Bound 1987.24s best:304   next:[108,303]  reduced_costs
#Bound 2070.57s best:304   next:[109,303]  reduced_costs
#Model 2074.87s var:24540/30286 constraints:54630/67724
#Model 2252.28s var:24537/30286 constraints:54622/67724
#Bound 2312.28s best:304   next:[110,303]  reduced_costs
#Model 2382.25s var:24536/30286 constraints:54621/67724
#Model 2385.78s var:24534/30286 constraints:54617/67724
#Model 2390.99s var:24533/30286 constraints:54615/67724
#Model 2461.44s var:24528/30286 constraints:54605/67724
#Bound 2510.09s best:304   next:[111,303]  reduced_costs
#Model 2553.77s var:24527/30286 constraints:54604/67724
#Model 2618.56s var:24525/30286 constraints:54600/67724
#Model 2618.67s var:24523/30286 constraints:54596/67724
#Model 2618.80s var:24521/30286 constraints:54592/67724
#Model 2618.97s var:24519/30286 constraints:54588/67724
#Model 2619.29s var:24517/30286 constraints:54584/67724
#Model 2619.45s var:24513/30286 constraints:54575/67724
#Model 2622.55s var:24509/30286 constraints:54564/67724
#Model 2628.64s var:24497/30286 constraints:54532/67724
#Model 2630.05s var:24496/30286 constraints:54530/67724
#Model 2630.49s var:24495/30286 constraints:54529/67724
#Model 2635.30s var:24493/30286 constraints:54525/67724
#Model 2643.98s var:24491/30286 constraints:54521/67724
#Model 2647.48s var:24474/30286 constraints:54490/67724
#Model 2648.56s var:24468/30286 constraints:54484/67724
#Bound 2754.90s best:304   next:[112,303]  reduced_costs
#Model 2778.69s var:24467/30286 constraints:54484/67724
#Model 2778.85s var:24438/30286 constraints:54421/67724
#Model 2848.97s var:24434/30286 constraints:54410/67724
#Model 2975.48s var:24432/30286 constraints:54406/67724
#Bound 2994.39s best:304   next:[113,303]  reduced_costs
#Model 2999.52s var:24427/30286 constraints:54391/67724
#Bound 3231.06s best:304   next:[114,303]  reduced_costs
#Model 3236.01s var:24423/30286 constraints:54382/67724
#Model 3236.86s var:24422/30286 constraints:54382/67724
#Model 3254.95s var:24420/30286 constraints:54378/67724
#Model 3256.39s var:24418/30286 constraints:54376/67724
#Model 3257.72s var:24416/30286 constraints:54372/67724
#Model 3258.06s var:24414/30286 constraints:54368/67724
#Model 3259.75s var:24409/30286 constraints:54353/67724
#Model 3260.38s var:24407/30286 constraints:54349/67724
#Model 3262.86s var:24403/30286 constraints:54338/67724
#Model 3263.29s var:24401/30286 constraints:54334/67724
#Model 3263.84s var:24400/30286 constraints:54333/67724
#Model 3265.06s var:24398/30286 constraints:54329/67724
#Model 3265.50s var:24393/30286 constraints:54314/67724
#Model 3267.38s var:24391/30286 constraints:54310/67724
#Model 3276.39s var:24387/30286 constraints:54299/67724
#Model 3287.43s var:24385/30286 constraints:54295/67724
#Model 3288.28s var:24383/30286 constraints:54291/67724
#Model 3288.50s var:24382/30286 constraints:54288/67724
#Model 3289.58s var:24378/30286 constraints:54280/67724
#Model 3292.04s var:24377/30286 constraints:54279/67724
#Model 3292.77s var:24375/30286 constraints:54275/67724
#Model 3293.73s var:24373/30286 constraints:54271/67724
#Model 3303.17s var:24369/30286 constraints:54260/67724
#Model 3308.07s var:24355/30286 constraints:54230/67724
#Model 3309.01s var:24354/30286 constraints:54229/67724
#Bound 3439.71s best:304   next:[115,303]  reduced_costs
#Model 3562.20s var:24353/30286 constraints:54227/67724
#Model 3562.42s var:24349/30286 constraints:54216/67724
#Bound 3605.22s best:304   next:[116,303]  reduced_costs
#Model 3612.64s var:24347/30286 constraints:54212/67724
#Model 3613.61s var:24344/30286 constraints:54206/67724
#Model 3683.10s var:24343/30286 constraints:54205/67724
#Model 3683.56s var:24340/30286 constraints:54199/67724
#Model 3688.70s var:24339/30286 constraints:54199/67724
#Model 3693.95s var:24338/30286 constraints:54197/67724
Interrupted system call ; error code 4
